p min 76 1275
n	26	-146
n	27	-83.43299999999999
n	28	-672
n	29	-1337
n	30	-31
n	31	-559
n	32	-1950.51
n	33	-1089
n	34	-33
n	35	-32
n	36	-5495
n	37	-904
n	38	-1466
n	39	-143
n	40	-615
n	41	-564
n	42	-226
n	43	-3016
n	44	-253
n	45	-195
n	46	-38
n	47	-807
n	48	-551
n	49	-357.808
n	50	-814
n	51	-337
n	52	-2935.296
n	53	-577
n	54	-482
n	55	-495
n	56	-231
n	57	-322
n	58	-375.3800000000001
n	59	-12912
n	60	-325
n	61	-232.044
n	62	-3671
n	63	-2213
n	64	-705
n	65	-328
n	66	-1681
n	67	-1117
n	68	-275
n	69	-500
n	70	-2241
n	71	-382.626
n	72	-112.11
n	73	-57.03599999999999
n	74	-1464
n	75	-222
n	76	55570.24299999999
a	76	1	0	58268	0.2145259833871078
a	76	2	0	58268	0.2145259833871078
a	76	3	0	58268	0.2145259833871078
a	76	4	0	58268	0.2145259833871078
a	76	5	0	58268	0.2145259833871078
a	76	6	0	58268	0.308273838127274
a	76	7	0	58268	-0.3121353058282419
a	76	8	0	58268	-0.149310084437427
a	76	9	0	58268	0.1617525914738793
a	76	10	0	58268	0.1576765977895243
a	76	11	0	85013.012	0
a	76	12	0	51159.304	-0.4170795599564842
a	76	13	0	102435.144	0.1220284319608122
a	76	14	0	85595.69200000001	0.1460353869211081
a	76	15	0	58268	0.2145259833871078
a	76	16	0	58268	0.2145259833871078
a	76	17	0	58268	0.2145259833871078
a	76	18	0	46789.20400000001	0.2671556455630235
a	76	19	0	29658.412	0.4214655862222158
a	76	20	0	49178.192	0.2541777054349619
a	76	21	0	39913.58	0.3131766180833691
a	76	22	0	79827.16	0.1565883090416846
a	76	23	0	61297.936	0.2039220374402166
a	76	24	0	58268	0.2145259833871078
a	76	25	0	58268	0.2145259833871078
a	1	26	0	+Inf	46.1625
a	1	27	0	+Inf	38.41240875912409
a	1	28	0	+Inf	7.3125
a	1	29	0	+Inf	24.2125
a	1	30	0	+Inf	55.33750000000001
a	1	31	0	+Inf	11.4875
a	1	32	0	+Inf	42.02612393681652
a	1	33	0	+Inf	30.6625
a	1	34	0	+Inf	61.2375
a	1	35	0	+Inf	45.6125
a	1	36	0	+Inf	25.6625
a	1	37	0	+Inf	19.5625
a	1	38	0	+Inf	26.0625
a	1	39	0	+Inf	13.6625
a	1	40	0	+Inf	27.9375
a	1	41	0	+Inf	45.4625
a	1	42	0	+Inf	31.1125
a	1	43	0	+Inf	26.0125
a	1	44	0	+Inf	37.3625
a	1	45	0	+Inf	44.0875
a	1	46	0	+Inf	41.6125
a	1	47	0	+Inf	28.7125
a	1	48	0	+Inf	21.9375
a	1	49	0	+Inf	13.64698385726423
a	1	50	0	+Inf	29.5625
a	1	51	0	+Inf	12.2375
a	1	52	0	+Inf	95.8891369047619
a	1	53	0	+Inf	19.1625
a	1	54	0	+Inf	17.8125
a	1	55	0	+Inf	25.2125
a	1	56	0	+Inf	16.1375
a	1	57	0	+Inf	14.5125
a	1	58	0	+Inf	35.83485401459853
a	1	59	0	+Inf	28.8625
a	1	60	0	+Inf	29.9875
a	1	61	0	+Inf	51.95189274447949
a	1	62	0	+Inf	26.5875
a	1	63	0	+Inf	27.4625
a	1	64	0	+Inf	77.2625
a	1	65	0	+Inf	21.7875
a	1	66	0	+Inf	22.6125
a	1	67	0	+Inf	35.5625
a	1	68	0	+Inf	58.5875
a	1	69	0	+Inf	33.9625
a	1	70	0	+Inf	75.2625
a	1	71	0	+Inf	149.2576628352491
a	1	72	0	+Inf	138.9356435643564
a	1	73	0	+Inf	44.57689003436427
a	1	74	0	+Inf	23.2625
a	1	75	0	+Inf	31.9625
a	2	26	0	+Inf	70.925
a	2	27	0	+Inf	65.40667361835246
a	2	28	0	+Inf	39.3
a	2	29	0	+Inf	22.425
a	2	30	0	+Inf	69.42500000000001
a	2	31	0	+Inf	42.4
a	2	32	0	+Inf	14.61117861482382
a	2	33	0	+Inf	24.375
a	2	34	0	+Inf	75.175
a	2	35	0	+Inf	62.35
a	2	36	0	+Inf	37.475
a	2	37	0	+Inf	35.475
a	2	38	0	+Inf	28.975
a	2	39	0	+Inf	35.275
a	2	40	0	+Inf	58.625
a	2	41	0	+Inf	63.125
a	2	42	0	+Inf	46.425
a	2	43	0	+Inf	30.675
a	2	44	0	+Inf	49.175
a	2	45	0	+Inf	72.375
a	2	46	0	+Inf	53.425
a	2	47	0	+Inf	60.34999999999999
a	2	48	0	+Inf	36.075
a	2	49	0	+Inf	35.91758708581138
a	2	50	0	+Inf	48.75
a	2	51	0	+Inf	36.05
a	2	52	0	+Inf	138.578869047619
a	2	53	0	+Inf	38.325
a	2	54	0	+Inf	46.575
a	2	55	0	+Inf	51.425
a	2	56	0	+Inf	48.125
a	2	57	0	+Inf	41.45
a	2	58	0	+Inf	93.52189781021896
a	2	59	0	+Inf	17.75
a	2	60	0	+Inf	55.6
a	2	61	0	+Inf	78.35173501577286
a	2	62	0	+Inf	20.05
a	2	63	0	+Inf	28.725
a	2	64	0	+Inf	92.45
a	2	65	0	+Inf	26.275
a	2	66	0	+Inf	42.075
a	2	67	0	+Inf	47.375
a	2	68	0	+Inf	75.325
a	2	69	0	+Inf	65.15000000000001
a	2	70	0	+Inf	94.05
a	2	71	0	+Inf	174.3295019157088
a	2	72	0	+Inf	164.8514851485149
a	2	73	0	+Inf	68.87886597938144
a	2	74	0	+Inf	23.375
a	2	75	0	+Inf	54.05
a	3	26	0	+Inf	52.4
a	3	27	0	+Inf	46.08967674661106
a	3	28	0	+Inf	29.2
a	3	29	0	+Inf	15.725
a	3	30	0	+Inf	50.90000000000001
a	3	31	0	+Inf	28.975
a	3	32	0	+Inf	22.11421628189551
a	3	33	0	+Inf	5.85
a	3	34	0	+Inf	56.65
a	3	35	0	+Inf	43.825
a	3	36	0	+Inf	18.95
a	3	37	0	+Inf	16.95
a	3	38	0	+Inf	10.45
a	3	39	0	+Inf	28.6
a	3	40	0	+Inf	41.3
a	3	41	0	+Inf	44.6
a	3	42	0	+Inf	-36.7722
a	3	43	0	+Inf	12.15
a	3	44	0	+Inf	30.65
a	3	45	0	+Inf	53.85
a	3	46	0	+Inf	34.9
a	3	47	0	+Inf	44.7
a	3	48	0	+Inf	17.55
a	3	49	0	+Inf	30.2463891248938
a	3	50	0	+Inf	30.225
a	3	51	0	+Inf	24.275
a	3	52	0	+Inf	111.0119047619047
a	3	53	0	+Inf	19.8
a	3	54	0	+Inf	29.3
a	3	55	0	+Inf	44.75
a	3	56	0	+Inf	35.625
a	3	57	0	+Inf	24.475
a	3	58	0	+Inf	69.06934306569342
a	3	59	0	+Inf	15.75
a	3	60	0	+Inf	37.075
a	3	61	0	+Inf	49.13249211356467
a	3	62	0	+Inf	16.225
a	3	63	0	+Inf	12.35
a	3	64	0	+Inf	73.925
a	3	65	0	+Inf	19.6
a	3	66	0	+Inf	23.55
a	3	67	0	+Inf	28.85
a	3	68	0	+Inf	56.8
a	3	69	0	+Inf	46.625
a	3	70	0	+Inf	75.52499999999999
a	3	71	0	+Inf	138.8409961685824
a	3	72	0	+Inf	128.1683168316832
a	3	73	0	+Inf	52.9639175257732
a	3	74	0	+Inf	16.7
a	3	75	0	+Inf	35.525
a	4	26	0	+Inf	35.75
a	4	27	0	+Inf	28.72784150156413
a	4	28	0	+Inf	20.65
a	4	29	0	+Inf	22.2
a	4	30	0	+Inf	34.25
a	4	31	0	+Inf	18.575
a	4	32	0	+Inf	33.71810449574727
a	4	33	0	+Inf	15.4
a	4	34	0	+Inf	40.15
a	4	35	0	+Inf	27.175
a	4	36	0	+Inf	2.3
a	4	37	0	+Inf	9.324999999999999
a	4	38	0	+Inf	10.8
a	4	39	0	+Inf	23.975
a	4	40	0	+Inf	26.5
a	4	41	0	+Inf	27.95
a	4	42	0	+Inf	11.25
a	4	43	0	+Inf	9.1
a	4	44	0	+Inf	14
a	4	45	0	+Inf	37.2
a	4	46	0	+Inf	18.25
a	4	47	0	+Inf	32.425
a	4	48	0	+Inf	6.9
a	4	49	0	+Inf	24.95751911639762
a	4	50	0	+Inf	13.575
a	4	51	0	+Inf	16.65
a	4	52	0	+Inf	86.27232142857142
a	4	53	0	+Inf	9.675000000000001
a	4	54	0	+Inf	15.475
a	4	55	0	+Inf	38.525
a	4	56	0	+Inf	25.225
a	4	57	0	+Inf	13.45
a	4	58	0	+Inf	46.21350364963503
a	4	59	0	+Inf	25
a	4	60	0	+Inf	22.15
a	4	61	0	+Inf	22.87066246056782
a	4	62	0	+Inf	22.7
a	4	63	0	+Inf	14
a	4	64	0	+Inf	57.275
a	4	65	0	+Inf	23.85
a	4	66	0	+Inf	9.4
a	4	67	0	+Inf	12.2
a	4	68	0	+Inf	40.15
a	4	69	0	+Inf	32.5
a	4	70	0	+Inf	58.875
a	4	71	0	+Inf	106.9444444444444
a	4	72	0	+Inf	95.19801980198019
a	4	73	0	+Inf	38.65979381443299
a	4	74	0	+Inf	21.4
a	4	75	0	+Inf	18.875
a	5	26	0	+Inf	39.5625
a	5	27	0	+Inf	31.50417101147029
a	5	28	0	+Inf	13.6125
a	5	29	0	+Inf	15.9125
a	5	30	0	+Inf	40.33750000000001
a	5	31	0	+Inf	13.3875
a	5	32	0	+Inf	30.14884568651276
a	5	33	0	+Inf	12.4625
a	5	34	0	+Inf	46.2375
a	5	35	0	+Inf	32.8375
a	5	36	0	+Inf	8.387499999999999
a	5	37	0	+Inf	1.3625
a	5	38	0	+Inf	7.8625
a	5	39	0	+Inf	16.0125
a	5	40	0	+Inf	25.7375
a	5	41	0	+Inf	32.6625
a	5	42	0	+Inf	17.3375
a	5	43	0	+Inf	7.8125
a	5	44	0	+Inf	20.0875
a	5	45	0	+Inf	40.3875
a	5	46	0	+Inf	24.3375
a	5	47	0	+Inf	29.1125
a	5	48	0	+Inf	4.0875
a	5	49	0	+Inf	18.99957519116398
a	5	50	0	+Inf	16.7625
a	5	51	0	+Inf	8.762500000000001
a	5	52	0	+Inf	90.19717261904762
a	5	53	0	+Inf	4.2125
a	5	54	0	+Inf	13.7125
a	5	55	0	+Inf	31.5125
a	5	56	0	+Inf	20.0375
a	5	57	0	+Inf	8.887500000000001
a	5	58	0	+Inf	40.62499999999999
a	5	59	0	+Inf	20.2375
a	5	60	0	+Inf	23.3625
a	5	61	0	+Inf	31.80205047318612
a	5	62	0	+Inf	17.9625
a	5	63	0	+Inf	9.262499999999999
a	5	64	0	+Inf	63.1125
a	5	65	0	+Inf	15.8875
a	5	66	0	+Inf	9.8125
a	5	67	0	+Inf	18.2875
a	5	68	0	+Inf	45.8125
a	5	69	0	+Inf	32.5375
a	5	70	0	+Inf	64.53750000000001
a	5	71	0	+Inf	118.6063218390805
a	5	72	0	+Inf	107.2524752475248
a	5	73	0	+Inf	41.39819587628866
a	5	74	0	+Inf	14.9625
a	5	75	0	+Inf	21.8375
a	6	26	0	+Inf	45.4875
a	6	27	0	+Inf	38.59489051094891
a	6	28	0	+Inf	22.2875
a	6	29	0	+Inf	15.0125
a	6	30	0	+Inf	43.9875
a	6	31	0	+Inf	22.0625
a	6	32	0	+Inf	24.89368165249089
a	6	33	0	+Inf	8.137499999999999
a	6	34	0	+Inf	49.8875
a	6	35	0	+Inf	36.9125
a	6	36	0	+Inf	12.0375
a	6	37	0	+Inf	10.0375
a	6	38	0	+Inf	3.5375
a	6	39	0	+Inf	24.6875
a	6	40	0	+Inf	34.3875
a	6	41	0	+Inf	37.6875
a	6	42	0	+Inf	20.9875
a	6	43	0	+Inf	7.6375
a	6	44	0	+Inf	23.7375
a	6	45	0	+Inf	46.9375
a	6	46	0	+Inf	27.9875
a	6	47	0	+Inf	37.7875
a	6	48	0	+Inf	10.6125
a	6	49	0	+Inf	26.37000849617672
a	6	50	0	+Inf	23.3125
a	6	51	0	+Inf	17.3625
a	6	52	0	+Inf	100.3162202380952
a	6	53	0	+Inf	12.8875
a	6	54	0	+Inf	22.3875
a	6	55	0	+Inf	40.1875
a	6	56	0	+Inf	28.7125
a	6	57	0	+Inf	17.5625
a	6	58	0	+Inf	56.45529197080291
a	6	59	0	+Inf	17.8125
a	6	60	0	+Inf	30.1625
a	6	61	0	+Inf	38.2294952681388
a	6	62	0	+Inf	15.5125
a	6	63	0	+Inf	6.8125
a	6	64	0	+Inf	67.0125
a	6	65	0	+Inf	17.1375
a	6	66	0	+Inf	16.6125
a	6	67	0	+Inf	21.9375
a	6	68	0	+Inf	49.8875
a	6	69	0	+Inf	39.7125
a	6	70	0	+Inf	68.6125
a	6	71	0	+Inf	125.5986590038314
a	6	72	0	+Inf	114.480198019802
a	6	73	0	+Inf	47.02534364261169
a	6	74	0	+Inf	14.2125
a	6	75	0	+Inf	28.6125
a	7	26	0	+Inf	29.9625
a	7	27	0	+Inf	22.04118873826903
a	7	28	0	+Inf	32.5125
a	7	29	0	+Inf	48.08750000000001
a	7	30	0	+Inf	49.16249999999999
a	7	31	0	+Inf	28.3375
a	7	32	0	+Inf	71.06622114216282
a	7	33	0	+Inf	47.3375
a	7	34	0	+Inf	55.0625
a	7	35	0	+Inf	35.4125
a	7	36	0	+Inf	36.0875
a	7	37	0	+Inf	36.2625
a	7	38	0	+Inf	42.7375
a	7	39	0	+Inf	38.8375
a	7	40	0	+Inf	11.8875
a	7	41	0	+Inf	32.7625
a	7	42	0	+Inf	30.3375
a	7	43	0	+Inf	41.8875
a	7	44	0	+Inf	40.6125
a	7	45	0	+Inf	28.0375
a	7	46	0	+Inf	42.8625
a	7	47	0	+Inf	18.4875
a	7	48	0	+Inf	35.66249999999999
a	7	49	0	+Inf	33.37935429056925
a	7	50	0	+Inf	24.8125
a	7	51	0	+Inf	34.4625
a	7	52	0	+Inf	72.00520833333333
a	7	53	0	+Inf	33.4125
a	7	54	0	+Inf	23.9125
a	7	55	0	+Inf	48.4375
a	7	56	0	+Inf	28.0375
a	7	57	0	+Inf	29.8875
a	7	58	0	+Inf	31.97039233576642
a	7	59	0	+Inf	31.1826375
a	7	60	0	+Inf	15.7063625
a	7	61	0	+Inf	46.82570977917981
a	7	62	0	+Inf	50.4625
a	7	63	0	+Inf	44.1625
a	7	64	0	+Inf	67.5625
a	7	65	0	+Inf	46.5125
a	7	66	0	+Inf	29.6625
a	7	67	0	+Inf	36.8125
a	7	68	0	+Inf	45.4625
a	7	69	0	+Inf	18.6625
a	7	70	0	+Inf	60.1375
a	7	71	0	+Inf	137.4281609195402
a	7	72	0	+Inf	126.7079207920792
a	7	73	0	+Inf	30.78823024054983
a	7	74	0	+Inf	47.1375
a	7	75	0	+Inf	22.0875
a	8	26	0	+Inf	26.35
a	8	27	0	+Inf	27.16371220020855
a	8	28	0	+Inf	52.575
a	8	29	0	+Inf	59.97499999999999
a	8	30	0	+Inf	30.825
a	8	31	0	+Inf	48.75
a	8	32	0	+Inf	79.61725394896719
a	8	33	0	+Inf	53.175
a	8	34	0	+Inf	36.725
a	8	35	0	+Inf	17.075
a	8	36	0	+Inf	40.075
a	8	37	0	+Inf	45.725
a	8	38	0	+Inf	48.575
a	8	39	0	+Inf	58.09999999999999
a	8	40	0	+Inf	35.3
a	8	41	0	+Inf	14.425
a	8	42	0	+Inf	31.5
a	8	43	0	+Inf	46.875
a	8	44	0	+Inf	40.375
a	8	45	0	+Inf	32.675
a	8	46	0	+Inf	42.625
a	8	47	0	+Inf	41.90000000000001
a	8	48	0	+Inf	43.27500000000001
a	8	49	0	+Inf	50.72217502124044
a	8	50	0	+Inf	30.325
a	8	51	0	+Inf	50.775
a	8	52	0	+Inf	71.80059523809523
a	8	53	0	+Inf	44.125
a	8	54	0	+Inf	42.425
a	8	55	0	+Inf	68.84999999999999
a	8	56	0	+Inf	51.45
a	8	57	0	+Inf	45.375
a	8	58	0	+Inf	87.49999999999999
a	8	59	0	+Inf	62.77500000000001
a	8	60	0	+Inf	32.9
a	8	61	0	+Inf	43.96687697160883
a	8	62	0	+Inf	60.475
a	8	63	0	+Inf	51.775
a	8	64	0	+Inf	48.725
a	8	65	0	+Inf	60.25
a	8	66	0	+Inf	37.275
a	8	67	0	+Inf	36.575
a	8	68	0	+Inf	28.675
a	8	69	0	+Inf	41.5
a	8	70	0	+Inf	48.775
a	8	71	0	+Inf	102.0593869731801
a	8	72	0	+Inf	90.39603960396039
a	8	73	0	+Inf	34.77233676975946
a	8	74	0	+Inf	59.175
a	8	75	0	+Inf	28.925
a	9	26	0	+Inf	44.0375
a	9	27	0	+Inf	37.36965589155371
a	9	28	0	+Inf	22.4875
a	9	29	0	+Inf	19.3875
a	9	30	0	+Inf	42.53749999999999
a	9	31	0	+Inf	22.2625
a	9	32	0	+Inf	27.26306196840826
a	9	33	0	+Inf	10.0875
a	9	34	0	+Inf	48.2875
a	9	35	0	+Inf	35.4625
a	9	36	0	+Inf	10.5875
a	9	37	0	+Inf	10.2375
a	9	38	0	+Inf	7.8875
a	9	39	0	+Inf	24.8875
a	9	40	0	+Inf	33.7875
a	9	41	0	+Inf	36.2375
a	9	42	0	+Inf	19.5375
a	9	43	0	+Inf	3.7875
a	9	44	0	+Inf	22.2875
a	9	45	0	+Inf	45.4875
a	9	46	0	+Inf	26.5375
a	9	47	0	+Inf	37.9875
a	9	48	0	+Inf	11.3625
a	9	49	0	+Inf	26.53993203058624
a	9	50	0	+Inf	21.8625
a	9	51	0	+Inf	17.5625
a	9	52	0	+Inf	98.60491071428569
a	9	53	0	+Inf	13.0875
a	9	54	0	+Inf	22.5875
a	9	55	0	+Inf	40.3875
a	9	56	0	+Inf	28.9125
a	9	57	0	+Inf	17.7625
a	9	58	0	+Inf	56.82025547445254
a	9	59	0	+Inf	19.9875
a	9	60	0	+Inf	29.5625
a	9	61	0	+Inf	35.94242902208202
a	9	62	0	+Inf	19.8875
a	9	63	0	+Inf	11.1875
a	9	64	0	+Inf	66.41249999999999
a	9	65	0	+Inf	21.4875
a	9	66	0	+Inf	16.0125
a	9	67	0	+Inf	20.4875
a	9	68	0	+Inf	48.4375
a	9	69	0	+Inf	39.1125
a	9	70	0	+Inf	67.16250000000001
a	9	71	0	+Inf	122.8208812260536
a	9	72	0	+Inf	111.6089108910891
a	9	73	0	+Inf	45.77963917525773
a	9	74	0	+Inf	18.5875
a	9	75	0	+Inf	27.1625
a	10	26	0	+Inf	36.9625
a	10	27	0	+Inf	30.95672575599583
a	10	28	0	+Inf	35.2375
a	10	29	0	+Inf	51.7625
a	10	30	0	+Inf	57.71250000000001
a	10	31	0	+Inf	31.7875
a	10	32	0	+Inf	75.53159173754557
a	10	33	0	+Inf	52.6875
a	10	34	0	+Inf	63.6125
a	10	35	0	+Inf	43.9625
a	10	36	0	+Inf	43.9625
a	10	37	0	+Inf	41.5875
a	10	38	0	+Inf	48.0875
a	10	39	0	+Inf	41.5875
a	10	40	0	+Inf	20.4375
a	10	41	0	+Inf	41.3125
a	10	42	0	+Inf	38.8875
a	10	43	0	+Inf	48.0375
a	10	44	0	+Inf	49.16249999999999
a	10	45	0	+Inf	34.5125
a	10	46	0	+Inf	51.4125
a	10	47	0	+Inf	13.8375
a	10	48	0	+Inf	41.5125
a	10	49	0	+Inf	32.4660152931181
a	10	50	0	+Inf	33.3625
a	10	51	0	+Inf	38.1375
a	10	52	0	+Inf	81.64062499999999
a	10	53	0	+Inf	38.7375
a	10	54	0	+Inf	29.2375
a	10	55	0	+Inf	47.3625
a	10	56	0	+Inf	26.4125
a	10	57	0	+Inf	35.2125
a	10	58	0	+Inf	41.81113138686131
a	10	59	0	+Inf	56.41249999999999
a	10	60	0	+Inf	26.3375
a	10	61	0	+Inf	60.31151419558359
a	10	62	0	+Inf	54.1375
a	10	63	0	+Inf	49.4875
a	10	64	0	+Inf	76.1125
a	10	65	0	+Inf	49.71250000000001
a	10	66	0	+Inf	36.8625
a	10	67	0	+Inf	45.3625
a	10	68	0	+Inf	54.0125
a	10	69	0	+Inf	19.0875
a	10	70	0	+Inf	66.6125
a	10	71	0	+Inf	153.7116858237548
a	10	72	0	+Inf	143.6386138613861
a	10	73	0	+Inf	36.35094501718213
a	10	74	0	+Inf	50.78749999999999
a	10	75	0	+Inf	30.6375
a	11	26	0	+Inf	35.75
a	11	27	0	+Inf	27.52867570385819
a	11	28	0	+Inf	14.625
a	11	29	0	+Inf	17.275
a	11	30	0	+Inf	36.55
a	11	31	0	+Inf	12.575
a	11	32	0	+Inf	29.22235722964763
a	11	33	0	+Inf	11.7
a	11	34	0	+Inf	42.3
a	11	35	0	+Inf	29.025
a	11	36	0	+Inf	4.6
a	11	37	0	+Inf	2.725
a	11	38	0	+Inf	7.075
a	11	39	0	+Inf	17.025
a	11	40	0	+Inf	23.775
a	11	41	0	+Inf	28.85
a	11	42	0	+Inf	13.55
a	11	43	0	+Inf	7.575
a	11	44	0	+Inf	16.3
a	11	45	0	+Inf	37.5
a	11	46	0	+Inf	20.55
a	11	47	0	+Inf	27.675
a	11	48	0	+Inf	0
a	11	49	0	+Inf	19.85981308411215
a	11	50	0	+Inf	12.95
a	11	51	0	+Inf	9.700000000000001
a	11	52	0	+Inf	84.52380952380952
a	11	53	0	+Inf	2.775
a	11	54	0	+Inf	12.275
a	11	55	0	+Inf	32.525
a	11	56	0	+Inf	19.225
a	11	57	0	+Inf	7.45
a	11	58	0	+Inf	39.14233576642335
a	11	59	0	+Inf	20.275
a	11	60	0	+Inf	19.55
a	11	61	0	+Inf	25.78864353312303
a	11	62	0	+Inf	17.975
a	11	63	0	+Inf	9.275
a	11	64	0	+Inf	60.675
a	11	65	0	+Inf	17.25
a	11	66	0	+Inf	6
a	11	67	0	+Inf	14.5
a	11	68	0	+Inf	42
a	11	69	0	+Inf	29.1
a	11	70	0	+Inf	60.725
a	11	71	0	+Inf	111.3505747126437
a	11	72	0	+Inf	99.75247524752476
a	11	73	0	+Inf	38.12285223367698
a	11	74	0	+Inf	16.325
a	11	75	0	+Inf	18.025
a	12	26	0	+Inf	28.65
a	12	27	0	+Inf	21.32429614181439
a	12	28	0	+Inf	28.725
a	12	29	0	+Inf	36.425
a	12	30	0	+Inf	32.75
a	12	31	0	+Inf	24.9
a	12	32	0	+Inf	52.49088699878493
a	12	33	0	+Inf	30.85
a	12	34	0	+Inf	38.65
a	12	35	0	+Inf	24.025
a	12	36	0	+Inf	17.75
a	12	37	0	+Inf	21.875
a	12	38	0	+Inf	26.25
a	12	39	0	+Inf	34.25
a	12	40	0	+Inf	19.4
a	12	41	0	+Inf	22.375
a	12	42	0	+Inf	12
a	12	43	0	+Inf	24.55
a	12	44	0	+Inf	22.275
a	12	45	0	+Inf	30.1
a	12	46	0	+Inf	24.525
a	12	47	0	+Inf	26
a	12	48	0	+Inf	19.425
a	12	49	0	+Inf	30.45879354290569
a	12	50	0	+Inf	6.475
a	12	51	0	+Inf	26.925
a	12	52	0	+Inf	75.70684523809523
a	12	53	0	+Inf	20.275
a	12	54	0	+Inf	18.575
a	12	55	0	+Inf	45
a	12	56	0	+Inf	29.625
a	12	57	0	+Inf	21.525
a	12	58	0	+Inf	51.64233576642335
a	12	59	0	+Inf	39.7
a	12	60	0	+Inf	15.05
a	12	61	0	+Inf	17.90220820189274
a	12	62	0	+Inf	37.4
a	12	63	0	+Inf	28.7
a	12	64	0	+Inf	55.675
a	12	65	0	+Inf	36.40000000000001
a	12	66	0	+Inf	13.425
a	12	67	0	+Inf	18.475
a	12	68	0	+Inf	36.625
a	12	69	0	+Inf	26.175
a	12	70	0	+Inf	55.725
a	12	71	0	+Inf	105.9865900383142
a	12	72	0	+Inf	94.20792079207921
a	12	73	0	+Inf	32.56013745704468
a	12	74	0	+Inf	35.475
a	12	75	0	+Inf	11.775
a	13	26	0	+Inf	50.625
a	13	27	0	+Inf	61.31386861313869
a	13	28	0	+Inf	85.52500000000001
a	13	29	0	+Inf	101.1
a	13	30	0	+Inf	64.7
a	13	31	0	+Inf	81.35000000000001
a	13	32	0	+Inf	133.0498177399757
a	13	33	0	+Inf	97.15000000000001
a	13	34	0	+Inf	58.8
a	13	35	0	+Inf	60.95
a	13	36	0	+Inf	84.075
a	13	37	0	+Inf	87.65000000000001
a	13	38	0	+Inf	92.27499999999999
a	13	39	0	+Inf	91.84999999999999
a	13	40	0	+Inf	64.90000000000001
a	13	41	0	+Inf	62.225
a	13	42	0	+Inf	77.25
a	13	43	0	+Inf	90.875
a	13	44	0	+Inf	86.125
a	13	45	0	+Inf	48.75
a	13	46	0	+Inf	80.7
a	13	47	0	+Inf	69.425
a	13	48	0	+Inf	85.19999999999999
a	13	49	0	+Inf	78.88700084961768
a	13	50	0	+Inf	72.8
a	13	51	0	+Inf	87.47500000000001
a	13	52	0	+Inf	42.26190476190476
a	13	53	0	+Inf	86.05
a	13	54	0	+Inf	76.95
a	13	55	0	+Inf	102
a	13	56	0	+Inf	81.05
a	13	57	0	+Inf	82.925
a	13	58	0	+Inf	141.514598540146
a	13	59	0	+Inf	105.45
a	13	60	0	+Inf	65.65000000000001
a	13	61	0	+Inf	116.1277602523659
a	13	62	0	+Inf	103.175
a	13	63	0	+Inf	94.47499999999999
a	13	64	0	+Inf	58.1
a	13	65	0	+Inf	99.52500000000001
a	13	66	0	+Inf	79.2
a	13	67	0	+Inf	82.32499999999999
a	13	68	0	+Inf	47.975
a	13	69	0	+Inf	64.175
a	13	70	0	+Inf	40.15
a	13	71	0	+Inf	120.0191570881226
a	13	72	0	+Inf	133.2673267326733
a	13	73	0	+Inf	35.18041237113403
a	13	74	0	+Inf	101.05
a	13	75	0	+Inf	67.47500000000001
a	14	26	0	+Inf	34.5125
a	14	27	0	+Inf	26.23826903023983
a	14	28	0	+Inf	16.6375
a	14	29	0	+Inf	30.3125
a	14	30	0	+Inf	44.5125
a	14	31	0	+Inf	12.4625
a	14	32	0	+Inf	49.43803159173755
a	14	33	0	+Inf	29.5875
a	14	34	0	+Inf	50.4125
a	14	35	0	+Inf	35.7875
a	14	36	0	+Inf	19.3125
a	14	37	0	+Inf	18.4875
a	14	38	0	+Inf	24.9875
a	14	39	0	+Inf	22.9625
a	14	40	0	+Inf	18.1625
a	14	41	0	+Inf	34.1375
a	14	42	0	+Inf	22.2625
a	14	43	0	+Inf	24.9375
a	14	44	0	+Inf	31.9125
a	14	45	0	+Inf	34.3375
a	14	46	0	+Inf	34.1625
a	14	47	0	+Inf	21.5375
a	14	48	0	+Inf	18.4125
a	14	49	0	+Inf	19.89167374681393
a	14	50	0	+Inf	18.2375
a	14	51	0	+Inf	16.6875
a	14	52	0	+Inf	81.38020833333333
a	14	53	0	+Inf	15.6375
a	14	54	0	+Inf	6.1375
a	14	55	0	+Inf	32.5625
a	14	56	0	+Inf	15.9875
a	14	57	0	+Inf	12.1125
a	14	58	0	+Inf	29.1742700729927
a	14	59	0	+Inf	34.9625
a	14	60	0	+Inf	18.3125
a	14	61	0	+Inf	36.45504731861198
a	14	62	0	+Inf	32.6875
a	14	63	0	+Inf	26.3875
a	14	64	0	+Inf	68.53749999999999
a	14	65	0	+Inf	28.7125
a	14	66	0	+Inf	13.7625
a	14	67	0	+Inf	28.1125
a	14	68	0	+Inf	47.4625
a	14	69	0	+Inf	24.9625
a	14	70	0	+Inf	63.5875
a	14	71	0	+Inf	128.5201149425287
a	14	72	0	+Inf	117.5
a	14	73	0	+Inf	36.20060137457045
a	14	74	0	+Inf	29.3625
a	14	75	0	+Inf	20.2875
a	15	26	0	+Inf	70.8875
a	15	27	0	+Inf	64.71584984358708
a	15	28	0	+Inf	34.1625
a	15	29	0	+Inf	45.2625
a	15	30	0	+Inf	81.0625
a	15	31	0	+Inf	36.3625
a	15	32	0	+Inf	67.63365735115431
a	15	33	0	+Inf	55.1625
a	15	34	0	+Inf	86.96249999999999
a	15	35	0	+Inf	72.33750000000001
a	15	36	0	+Inf	52.4875
a	15	37	0	+Inf	46.4125
a	15	38	0	+Inf	52.9125
a	15	39	0	+Inf	32.4125
a	15	40	0	+Inf	52.8125
a	15	41	0	+Inf	70.6875
a	15	42	0	+Inf	57.9375
a	15	43	0	+Inf	52.8625
a	15	44	0	+Inf	64.1875
a	15	45	0	+Inf	69.5125
a	15	46	0	+Inf	68.4375
a	15	47	0	+Inf	49.78749999999999
a	15	48	0	+Inf	48.78749999999999
a	15	49	0	+Inf	21.59090909090909
a	15	50	0	+Inf	54.7875
a	15	51	0	+Inf	39.0875
a	15	52	0	+Inf	133.7239583333333
a	15	53	0	+Inf	46.0125
a	15	54	0	+Inf	42.6875
a	15	55	0	+Inf	16.2625
a	15	56	0	+Inf	37.2125
a	15	57	0	+Inf	41.3375
a	15	58	0	+Inf	74.29288321167883
a	15	59	0	+Inf	49.9375
a	15	60	0	+Inf	54.8625
a	15	61	0	+Inf	92.5276025236593
a	15	62	0	+Inf	47.6625
a	15	63	0	+Inf	51.7125
a	15	64	0	+Inf	104.1125
a	15	65	0	+Inf	41.41249999999999
a	15	66	0	+Inf	48.3375
a	15	67	0	+Inf	62.3875
a	15	68	0	+Inf	84.0125
a	15	69	0	+Inf	55.0375
a	15	70	0	+Inf	100.1375
a	15	71	0	+Inf	198.5392720306513
a	15	72	0	+Inf	189.8762376237624
a	15	73	0	+Inf	66.41967353951891
a	15	74	0	+Inf	44.3125
a	15	75	0	+Inf	56.8375
a	16	26	0	+Inf	41.45
a	16	27	0	+Inf	34.01981230448384
a	16	28	0	+Inf	23.05
a	16	29	0	+Inf	39.575
a	16	30	0	+Inf	58.825
a	16	31	0	+Inf	19.6
a	16	32	0	+Inf	60.69258809234508
a	16	33	0	+Inf	42.725
a	16	34	0	+Inf	64.72500000000001
a	16	35	0	+Inf	46.9
a	16	36	0	+Inf	33.75
a	16	37	0	+Inf	31.625
a	16	38	0	+Inf	38.125
a	16	39	0	+Inf	29.4
a	16	40	0	+Inf	23.375
a	16	41	0	+Inf	44.25
a	16	42	0	+Inf	36.7
a	16	43	0	+Inf	38.075
a	16	44	0	+Inf	46.34999999999999
a	16	45	0	+Inf	39.525
a	16	46	0	+Inf	48.6
a	16	47	0	+Inf	19.8
a	16	48	0	+Inf	32.175
a	16	49	0	+Inf	22.11129991503823
a	16	50	0	+Inf	32.55
a	16	51	0	+Inf	25.95
a	16	52	0	+Inf	89.09970238095238
a	16	53	0	+Inf	-22.1088
a	16	54	0	+Inf	20.575
a	16	55	0	+Inf	35.175
a	16	56	0	+Inf	14.225
a	16	57	0	+Inf	24.725
a	16	58	0	+Inf	19.57116788321168
a	16	59	0	+Inf	44.59999999999999
a	16	60	0	+Inf	29.275
a	16	61	0	+Inf	59.02996845425867
a	16	62	0	+Inf	42.325
a	16	63	0	+Inf	39.525
a	16	64	0	+Inf	79.02500000000001
a	16	65	0	+Inf	37.52500000000001
a	16	66	0	+Inf	28.2
a	16	67	0	+Inf	42.55
a	16	68	0	+Inf	56.925
a	16	69	0	+Inf	25.05
a	16	70	0	+Inf	71.625
a	16	71	0	+Inf	159.4348659003831
a	16	72	0	+Inf	149.4554455445545
a	16	73	0	+Inf	40.65721649484536
a	16	74	0	+Inf	38.6
a	16	75	0	+Inf	33.55
a	17	26	0	+Inf	65.53750000000001
a	17	27	0	+Inf	59.21532846715328
a	17	28	0	+Inf	31.6875
a	17	29	0	+Inf	14.8125
a	17	30	0	+Inf	64.78749999999999
a	17	31	0	+Inf	34.7875
a	17	32	0	+Inf	19.27399756986634
a	17	33	0	+Inf	20.0375
a	17	34	0	+Inf	70.53750000000001
a	17	35	0	+Inf	57.7125
a	17	36	0	+Inf	32.8375
a	17	37	0	+Inf	29.0125
a	17	38	0	+Inf	24.4125
a	17	39	0	+Inf	27.6625
a	17	40	0	+Inf	51.0125
a	17	41	0	+Inf	58.4875
a	17	42	0	+Inf	41.7875
a	17	43	0	+Inf	26.3375
a	17	44	0	+Inf	44.53749999999999
a	17	45	0	+Inf	67.8875
a	17	46	0	+Inf	48.7875
a	17	47	0	+Inf	52.71250000000001
a	17	48	0	+Inf	30.4125
a	17	49	0	+Inf	29.44987255734919
a	17	50	0	+Inf	43.3625
a	17	51	0	+Inf	28.4375
a	17	52	0	+Inf	129.7433035714286
a	17	53	0	+Inf	31.8625
a	17	54	0	+Inf	38.9625
a	17	55	0	+Inf	43.8125
a	17	56	0	+Inf	40.5125
a	17	57	0	+Inf	33.8375
a	17	58	0	+Inf	80.3147810218978
a	17	59	0	+Inf	10.1375
a	17	60	0	+Inf	49.9375
a	17	61	0	+Inf	71.03706624605677
a	17	62	0	+Inf	12.4125
a	17	63	0	+Inf	21.1125
a	17	64	0	+Inf	87.8125
a	17	65	0	+Inf	18.6625
a	17	66	0	+Inf	36.4125
a	17	67	0	+Inf	42.7375
a	17	68	0	+Inf	70.6875
a	17	69	0	+Inf	57.7875
a	17	70	0	+Inf	89.41250000000001
a	17	71	0	+Inf	165.4454022988506
a	17	72	0	+Inf	155.6683168316831
a	17	73	0	+Inf	64.25042955326461
a	17	74	0	+Inf	15.7625
a	17	75	0	+Inf	48.4375
a	18	26	0	+Inf	62.0875
a	18	27	0	+Inf	55.64389989572472
a	18	28	0	+Inf	28.2625
a	18	29	0	+Inf	11.3625
a	18	30	0	+Inf	61.33750000000001
a	18	31	0	+Inf	31.3375
a	18	32	0	+Inf	20.67132442284326
a	18	33	0	+Inf	19.3625
a	18	34	0	+Inf	67.2375
a	18	35	0	+Inf	54.2625
a	18	36	0	+Inf	29.3875
a	18	37	0	+Inf	25.5875
a	18	38	0	+Inf	20.9625
a	18	39	0	+Inf	24.2375
a	18	40	0	+Inf	47.5625
a	18	41	0	+Inf	55.0375
a	18	42	0	+Inf	38.3375
a	18	43	0	+Inf	25.0875
a	18	44	0	+Inf	41.1125
a	18	45	0	+Inf	63.7375
a	18	46	0	+Inf	45.3375
a	18	47	0	+Inf	49.28749999999999
a	18	48	0	+Inf	26.9625
a	18	49	0	+Inf	26.53993203058624
a	18	50	0	+Inf	39.9125
a	18	51	0	+Inf	24.9875
a	18	52	0	+Inf	124.6465773809524
a	18	53	0	+Inf	28.4375
a	18	54	0	+Inf	35.5375
a	18	55	0	+Inf	40.3875
a	18	56	0	+Inf	37.0875
a	18	57	0	+Inf	30.3875
a	18	58	0	+Inf	74.0647810218978
a	18	59	0	+Inf	11.2625
a	18	60	0	+Inf	46.5125
a	18	61	0	+Inf	65.59542586750788
a	18	62	0	+Inf	8.987500000000001
a	18	63	0	+Inf	17.6875
a	18	64	0	+Inf	84.3625
a	18	65	0	+Inf	15.2375
a	18	66	0	+Inf	32.9625
a	18	67	0	+Inf	39.28749999999999
a	18	68	0	+Inf	67.2375
a	18	69	0	+Inf	54.3625
a	18	70	0	+Inf	85.96249999999999
a	18	71	0	+Inf	158.8362068965517
a	18	72	0	+Inf	148.8366336633663
a	18	73	0	+Inf	61.28651202749141
a	18	74	0	+Inf	12.3125
a	18	75	0	+Inf	44.9875
a	19	26	0	+Inf	49.0375
a	19	27	0	+Inf	42.03597497393118
a	19	28	0	+Inf	24.7875
a	19	29	0	+Inf	12.8375
a	19	30	0	+Inf	48.3125
a	19	31	0	+Inf	24.5625
a	19	32	0	+Inf	25.92648845686513
a	19	33	0	+Inf	11.1375
a	19	34	0	+Inf	54.2125
a	19	35	0	+Inf	41.2125
a	19	36	0	+Inf	16.3375
a	19	37	0	+Inf	12.5375
a	19	38	0	+Inf	7.912500000000001
a	19	39	0	+Inf	23.9375
a	19	40	0	+Inf	36.9125
a	19	41	0	+Inf	41.9875
a	19	42	0	+Inf	25.2875
a	19	43	0	+Inf	12.0375
a	19	44	0	+Inf	28.0625
a	19	45	0	+Inf	50.4875
a	19	46	0	+Inf	32.3125
a	19	47	0	+Inf	40.2875
a	19	48	0	+Inf	13.9125
a	19	49	0	+Inf	26.28504672897196
a	19	50	0	+Inf	26.8625
a	19	51	0	+Inf	19.8625
a	19	52	0	+Inf	105.2269345238095
a	19	53	0	+Inf	15.3875
a	19	54	0	+Inf	24.8875
a	19	55	0	+Inf	40.0875
a	19	56	0	+Inf	31.2125
a	19	57	0	+Inf	20.0625
a	19	58	0	+Inf	61.01733576642335
a	19	59	0	+Inf	15.6125
a	19	60	0	+Inf	33.4625
a	19	61	0	+Inf	45.01182965299684
a	19	62	0	+Inf	13.3375
a	19	63	0	+Inf	4.6375
a	19	64	0	+Inf	71.33750000000001
a	19	65	0	+Inf	14.9625
a	19	66	0	+Inf	19.9125
a	19	67	0	+Inf	26.2625
a	19	68	0	+Inf	54.1875
a	19	69	0	+Inf	43.0125
a	19	70	0	+Inf	72.91250000000001
a	19	71	0	+Inf	133.8840996168582
a	19	72	0	+Inf	123.0445544554455
a	19	73	0	+Inf	50.07517182130585
a	19	74	0	+Inf	12.0375
a	19	75	0	+Inf	31.9375
a	20	26	0	+Inf	32.75
a	20	27	0	+Inf	24.40041710114703
a	20	28	0	+Inf	18.3
a	20	29	0	+Inf	26
a	20	30	0	+Inf	35.75
a	20	31	0	+Inf	14.975
a	20	32	0	+Inf	40.15795868772783
a	20	33	0	+Inf	20.7
a	20	34	0	+Inf	41.65
a	20	35	0	+Inf	26.025
a	20	36	0	+Inf	10.1
a	20	37	0	+Inf	11.45
a	20	38	0	+Inf	16.075
a	20	39	0	+Inf	23.825
a	20	40	0	+Inf	20.775
a	20	41	0	+Inf	25.85
a	20	42	0	+Inf	11.5
a	20	43	0	+Inf	15.225
a	20	44	0	+Inf	21.15
a	20	45	0	+Inf	33.575
a	20	46	0	+Inf	23.4
a	20	47	0	+Inf	26.025
a	20	48	0	+Inf	9
a	20	49	0	+Inf	22.02633814783347
a	20	50	0	+Inf	9.950000000000001
a	20	51	0	+Inf	16.5
a	20	52	0	+Inf	80.0595238095238
a	20	53	0	+Inf	9.85
a	20	54	0	+Inf	5.323125
a	20	55	0	+Inf	35.075
a	20	56	0	+Inf	19.2
a	20	57	0	+Inf	11.1
a	20	58	0	+Inf	37.36313868613138
a	20	59	0	+Inf	29.275
a	20	60	0	+Inf	16.55
a	20	61	0	+Inf	21.05678233438486
a	20	62	0	+Inf	26.975
a	20	63	0	+Inf	18.275
a	20	64	0	+Inf	57.675
a	20	65	0	+Inf	25.975
a	20	66	0	+Inf	3
a	20	67	0	+Inf	17.35
a	20	68	0	+Inf	39
a	20	69	0	+Inf	26.1
a	20	70	0	+Inf	57.725
a	20	71	0	+Inf	111.7337164750958
a	20	72	0	+Inf	100.1485148514851
a	20	73	0	+Inf	36.34020618556701
a	20	74	0	+Inf	25.05
a	20	75	0	+Inf	15.025
a	21	26	0	+Inf	41.325
a	21	27	0	+Inf	34.64546402502607
a	21	28	0	+Inf	35.5
a	21	29	0	+Inf	37.075
a	21	30	0	+Inf	29.3
a	21	31	0	+Inf	33.425
a	21	32	0	+Inf	51.76184690157959
a	21	33	0	+Inf	30.25
a	21	34	0	+Inf	35.05
a	21	35	0	+Inf	28.625
a	21	36	0	+Inf	17.15
a	21	37	0	+Inf	24.175
a	21	38	0	+Inf	25.65
a	21	39	0	+Inf	38.825
a	21	40	0	+Inf	32.175
a	21	41	0	+Inf	29.4
a	21	42	0	+Inf	13.725
a	21	43	0	+Inf	23.95
a	21	44	0	+Inf	11.05
a	21	45	0	+Inf	42.875
a	21	46	0	+Inf	13.3
a	21	47	0	+Inf	38.775
a	21	48	0	+Inf	21.75
a	21	49	0	+Inf	37.57434154630416
a	21	50	0	+Inf	19.25
a	21	51	0	+Inf	31.5
a	21	52	0	+Inf	91.03422619047619
a	21	53	0	+Inf	24.525
a	21	54	0	+Inf	29.225
a	21	55	0	+Inf	53.375
a	21	56	0	+Inf	37.8
a	21	57	0	+Inf	28.3
a	21	58	0	+Inf	71.30474452554743
a	21	59	0	+Inf	39.85
a	21	60	0	+Inf	27.85
a	21	61	0	+Inf	25.1577287066246
a	21	62	0	+Inf	37.55
a	21	63	0	+Inf	28.875
a	21	64	0	+Inf	52.325
a	21	65	0	+Inf	38.7
a	21	66	0	+Inf	21.6
a	21	67	0	+Inf	7.25
a	21	68	0	+Inf	41.6
a	21	69	0	+Inf	38.95
a	21	70	0	+Inf	60.325
a	21	71	0	+Inf	97.46168582375478
a	21	72	0	+Inf	85.3960396039604
a	21	73	0	+Inf	43.5352233676976
a	21	74	0	+Inf	36.275
a	21	75	0	+Inf	24.55
a	22	26	0	+Inf	45.625
a	22	27	0	+Inf	47.26277372262774
a	22	28	0	+Inf	72.27500000000001
a	22	29	0	+Inf	78.75
a	22	30	0	+Inf	37.72499999999999
a	22	31	0	+Inf	68.64999999999999
a	22	32	0	+Inf	102.4301336573511
a	22	33	0	+Inf	71.95
a	22	34	0	+Inf	31.825
a	22	35	0	+Inf	33.975
a	22	36	0	+Inf	58.85
a	22	37	0	+Inf	65.45
a	22	38	0	+Inf	67.35000000000001
a	22	39	0	+Inf	77.8
a	22	40	0	+Inf	54.575
a	22	41	0	+Inf	35.25
a	22	42	0	+Inf	50.275
a	22	43	0	+Inf	65.64999999999999
a	22	44	0	+Inf	59.15000000000001
a	22	45	0	+Inf	51.95
a	22	46	0	+Inf	53.725
a	22	47	0	+Inf	61.175
a	22	48	0	+Inf	63
a	22	49	0	+Inf	67.62956669498726
a	22	50	0	+Inf	51.15
a	22	51	0	+Inf	71.02499999999999
a	22	52	0	+Inf	60.37946428571428
a	22	53	0	+Inf	63.825
a	22	54	0	+Inf	62.325
a	22	55	0	+Inf	88.75
a	22	56	0	+Inf	70.7
a	22	57	0	+Inf	68.3
a	22	58	0	+Inf	122.6277372262774
a	22	59	0	+Inf	81.55000000000001
a	22	60	0	+Inf	52.175
a	22	61	0	+Inf	73.58044164037855
a	22	62	0	+Inf	79.25
a	22	63	0	+Inf	70.55
a	22	64	0	+Inf	43.1
a	22	65	0	+Inf	79.97499999999999
a	22	66	0	+Inf	57
a	22	67	0	+Inf	55.34999999999999
a	22	68	0	+Inf	21
a	22	69	0	+Inf	61.35
a	22	70	0	+Inf	41.525
a	22	71	0	+Inf	91.28352490421454
a	22	72	0	+Inf	80.6930693069307
a	22	73	0	+Inf	45.64003436426118
a	22	74	0	+Inf	77.95
a	22	75	0	+Inf	48.175
a	23	26	0	+Inf	60.5875
a	23	27	0	+Inf	71.72836287799792
a	23	28	0	+Inf	98.3125
a	23	29	0	+Inf	106.8375
a	23	30	0	+Inf	65.8125
a	23	31	0	+Inf	94.1375
a	23	32	0	+Inf	136.5583232077764
a	23	33	0	+Inf	100.0375
a	23	34	0	+Inf	59.9125
a	23	35	0	+Inf	62.0625
a	23	36	0	+Inf	86.9375
a	23	37	0	+Inf	93.53749999999999
a	23	38	0	+Inf	95.4375
a	23	39	0	+Inf	104.6375
a	23	40	0	+Inf	78.6125
a	23	41	0	+Inf	64.71249999999999
a	23	42	0	+Inf	78.3625
a	23	43	0	+Inf	93.7375
a	23	44	0	+Inf	87.23750000000001
a	23	45	0	+Inf	62.4625
a	23	46	0	+Inf	81.8125
a	23	47	0	+Inf	83.13749999999999
a	23	48	0	+Inf	91.08750000000001
a	23	49	0	+Inf	89.28419711129992
a	23	50	0	+Inf	79.6125
a	23	51	0	+Inf	98.3625
a	23	52	0	+Inf	62.66741071428571
a	23	53	0	+Inf	91.91249999999999
a	23	54	0	+Inf	87.8125
a	23	55	0	+Inf	114.2375
a	23	56	0	+Inf	94.1875
a	23	57	0	+Inf	93.78750000000001
a	23	58	0	+Inf	166.5374087591241
a	23	59	0	+Inf	109.6375
a	23	60	0	+Inf	75.6375
a	23	61	0	+Inf	117.8824921135647
a	23	62	0	+Inf	107.3375
a	23	63	0	+Inf	98.6375
a	23	64	0	+Inf	48.3125
a	23	65	0	+Inf	108.0625
a	23	66	0	+Inf	85.08749999999999
a	23	67	0	+Inf	83.4375
a	23	68	0	+Inf	50.8875
a	23	69	0	+Inf	77.8875
a	23	70	0	+Inf	30.3625
a	23	71	0	+Inf	101.2691570881226
a	23	72	0	+Inf	113.8861386138614
a	23	73	0	+Inf	46.96091065292097
a	23	74	0	+Inf	106.0625
a	23	75	0	+Inf	77.46249999999999
a	24	26	0	+Inf	79.83749999999999
a	24	27	0	+Inf	82.93795620437956
a	24	28	0	+Inf	99.66249999999999
a	24	29	0	+Inf	102.4875
a	24	30	0	+Inf	51.6375
a	24	31	0	+Inf	96.33749999999999
a	24	32	0	+Inf	131.2727825030377
a	24	33	0	+Inf	95.6875
a	24	34	0	+Inf	45.7375
a	24	35	0	+Inf	65.2625
a	24	36	0	+Inf	82.58750000000001
a	24	37	0	+Inf	89.6125
a	24	38	0	+Inf	91.08749999999999
a	24	39	0	+Inf	105.1875
a	24	40	0	+Inf	88.91249999999999
a	24	41	0	+Inf	67.91250000000001
a	24	42	0	+Inf	77.66249999999999
a	24	43	0	+Inf	89.3875
a	24	44	0	+Inf	73.11250000000001
a	24	45	0	+Inf	83.66249999999999
a	24	46	0	+Inf	66.6375
a	24	47	0	+Inf	95.46250000000001
a	24	48	0	+Inf	87.1875
a	24	49	0	+Inf	91.1533559898046
a	24	50	0	+Inf	77.91250000000001
a	24	51	0	+Inf	96.9375
a	24	52	0	+Inf	94.21502976190476
a	24	53	0	+Inf	91.21250000000001
a	24	54	0	+Inf	90.0125
a	24	55	0	+Inf	116.4375
a	24	56	0	+Inf	100.5875
a	24	57	0	+Inf	92.4875
a	24	58	0	+Inf	185.3330291970803
a	24	59	0	+Inf	105.2875
a	24	60	0	+Inf	86.3875
a	24	61	0	+Inf	116.7783911671924
a	24	62	0	+Inf	102.9875
a	24	63	0	+Inf	94.3125
a	24	64	0	+Inf	33.6125
a	24	65	0	+Inf	104.1375
a	24	66	0	+Inf	84.3875
a	24	67	0	+Inf	72.6875
a	24	68	0	+Inf	55.7125
a	24	69	0	+Inf	95.71250000000001
a	24	70	0	+Inf	51.5625
a	24	71	0	+Inf	55.67528735632183
a	24	72	0	+Inf	72.8960396039604
a	24	73	0	+Inf	65.17396907216495
a	24	74	0	+Inf	101.7125
a	24	75	0	+Inf	82.53750000000001
a	25	26	0	+Inf	59.3375
a	25	27	0	+Inf	52.56777893639208
a	25	28	0	+Inf	24.1125
a	25	29	0	+Inf	9.112500000000001
a	25	30	0	+Inf	59.2375
a	25	31	0	+Inf	27.1875
a	25	32	0	+Inf	23.7089914945322
a	25	33	0	+Inf	19.0125
a	25	34	0	+Inf	64.9875
a	25	35	0	+Inf	52.1375
a	25	36	0	+Inf	27.2625
a	25	37	0	+Inf	21.7625
a	25	38	0	+Inf	18.8375
a	25	39	0	+Inf	20.0625
a	25	40	0	+Inf	43.4125
a	25	41	0	+Inf	52.9125
a	25	42	0	+Inf	36.2125
a	25	43	0	+Inf	22.9625
a	25	44	0	+Inf	38.9875
a	25	45	0	+Inf	59.5625
a	25	46	0	+Inf	43.2375
a	25	47	0	+Inf	45.1125
a	25	48	0	+Inf	24.4875
a	25	49	0	+Inf	22.99277824978759
a	25	50	0	+Inf	37.1625
a	25	51	0	+Inf	20.8375
a	25	52	0	+Inf	120.2566964285714
a	25	53	0	+Inf	24.6125
a	25	54	0	+Inf	31.3875
a	25	55	0	+Inf	36.2125
a	25	56	0	+Inf	32.9375
a	25	57	0	+Inf	26.2375
a	25	58	0	+Inf	65.76186131386861
a	25	59	0	+Inf	13.7875
a	25	60	0	+Inf	43.7625
a	25	61	0	+Inf	62.24369085173501
a	25	62	0	+Inf	11.4875
a	25	63	0	+Inf	15.5625
a	25	64	0	+Inf	83.78749999999999
a	25	65	0	+Inf	11.0875
a	25	66	0	+Inf	30.2125
a	25	67	0	+Inf	37.1875
a	25	68	0	+Inf	65.1125
a	25	69	0	+Inf	50.1875
a	25	70	0	+Inf	83.8625
a	25	71	0	+Inf	154.8132183908046
a	25	72	0	+Inf	144.6782178217822
a	25	73	0	+Inf	57.87156357388317
a	25	74	0	+Inf	8.1625
a	25	75	0	+Inf	42.2375
